p cnf 7230 17
-3996 -6387 -6509 0
-1638 -6377 6507 0
-6243 -6371 -6505 0
3996 -6510 0
1638 -6508 0
6243 -6506 0
6509 6510 0
-6507 6508 0
6505 6506 0
6387 -6510 0
6377 -6508 0
6371 -6506 0
-6255 -6383 6512 0
6503 6504 0
-6503 -6504 0
6383 -6512 0
6255 -6512 0
